Copyright (C) 2013-2015, Filipe Brandao
Build (method = -2)
  #dp: 20260
  Step-3' Graph: 146 vertices and 5419 arcs (0.03s)
  Step-4' Graph: 145 vertices and 5417 arcs (0.03s)
  #V4/#V3 = 0.99
  #A4/#A3 = 1.00
Ready! (0.03s)
Optimize a model with 245 rows, 5418 columns and 15969 nonzeros
Found heuristic solution: objective 455
Presolve removed 27 rows and 27 columns
Presolve time: 0.01s
Presolved: 218 rows, 5391 columns, 15890 nonzeros
Variable types: 0 continuous, 5391 integer (0 binary)
Optimize a model with 218 rows, 5391 columns and 15890 nonzeros
Presolved: 218 rows, 5391 columns, 15890 nonzeros

Root barrier log...

Ordering time: 0.00s

Barrier statistics:
 AA' NZ     : 1.208e+04
 Factor NZ  : 1.639e+04 (roughly 2 MBytes of memory)
 Factor Ops : 1.560e+06 (less than 1 second per iteration)
 Threads    : 1

                  Objective                Residual
Iter       Primal          Dual         Primal    Dual     Compl     Time
   0   1.38677658e+04 -5.95014937e+04  2.15e+04 7.03e-03  1.01e+02     0s
   1   4.01371972e+03 -3.05994200e+04  3.75e+03 6.66e-16  1.91e+01     0s
   2   1.06077350e+03 -1.65821190e+04  4.66e+02 1.34e-02  3.43e+00     0s
   3   7.38334908e+02 -5.33884747e+03  4.75e+01 1.18e-03  6.73e-01     0s
   4   5.69695509e+02 -1.32313489e+03  1.35e+01 2.18e-04  1.92e-01     0s
   5   5.09529323e+02 -8.47996328e+02  1.01e+01 1.20e-04  1.36e-01     0s
   6   4.48946076e+02 -5.62392139e+02  7.33e+00 4.43e-05  1.00e-01     0s
   7   3.82332670e+02 -4.41908212e+02  4.74e+00 3.26e-05  7.99e-02     0s
   8   3.05253022e+02 -2.24756679e+02  2.42e+00 6.66e-16  5.05e-02     0s
   9   2.49612154e+02 -1.09814736e+02  1.46e+00 5.55e-16  3.40e-02     0s
  10   2.08322511e+02  1.51460399e+01  8.12e-01 3.33e-16  1.82e-02     0s
  11   1.95596076e+02  5.53592233e+01  6.34e-01 3.33e-16  1.32e-02     0s
  12   1.79355487e+02  9.65466584e+01  3.88e-01 2.22e-16  7.75e-03     0s
  13   1.72082958e+02  1.13071350e+02  2.69e-01 2.22e-16  5.51e-03     0s
  14   1.65315577e+02  1.29456730e+02  1.68e-01 2.22e-16  3.34e-03     0s
  15   1.62698003e+02  1.36869541e+02  1.15e-01 2.22e-16  2.40e-03     0s
  16   1.61687075e+02  1.44870552e+02  8.73e-02 2.22e-16  1.56e-03     0s
  17   1.60082075e+02  1.50595032e+02  5.70e-02 3.33e-16  8.80e-04     0s
  18   1.59031443e+02  1.51664949e+02  3.78e-02 2.33e-16  6.82e-04     0s
  19   1.58399085e+02  1.54226574e+02  2.69e-02 2.22e-16  3.86e-04     0s
  20   1.58068521e+02  1.56223186e+02  1.89e-02 2.22e-16  1.71e-04     0s
  21   1.57902654e+02  1.57118704e+02  1.42e-02 3.34e-16  7.25e-05     0s
  22   1.57704066e+02  1.57417466e+02  8.01e-03 3.71e-16  2.66e-05     0s
  23   1.57460583e+02  1.57450668e+02  2.92e-06 4.44e-16  9.13e-07     0s
  24   1.57460002e+02  1.57459991e+02  7.53e-13 3.33e-16  1.07e-09     0s
  25   1.57460000e+02  1.57460000e+02  1.66e-13 3.33e-16  1.31e-15     0s

Barrier solved model in 25 iterations and 0.05 seconds
Optimal objective 1.57460000e+02


Root relaxation: objective 1.574600e+02, 4918 iterations, 0.10 seconds

    Nodes    |    Current Node    |     Objective Bounds      |     Work
 Expl Unexpl |  Obj  Depth IntInf | Incumbent    BestBd   Gap | It/Node Time

     0     0  157.46000    0   89  455.00000  157.46000  65.4%     -    0s
H    0     0                     159.0000000  157.46000  0.97%     -    0s
H    0     0                     158.0000000  157.46000  0.34%     -    0s

Explored 0 nodes (8232 simplex iterations) in 0.52 seconds
Thread count was 1 (of 4 available processors)

Optimal solution found (tolerance 0.00e+00)
Best objective 1.580000000000e+02, best bound 1.580000000000e+02, gap 0.0%
Preprocessing time: 0.04 seconds
Gurobi run time: 0.52 seconds
Total run time: 0.56 seconds
Objective: 158
Solution:
2 x [i=1, i=51]
1 x [i=1, i=77, i=83, i=93]
2 x [i=2, i=50]
5 x [i=2, i=75, i=76]
4 x [i=3, i=49]
3 x [i=4, i=72, i=88, i=90]
6 x [i=5, i=47]
2 x [i=6, i=67, i=80]
2 x [i=7, i=74, i=84, i=89]
4 x [i=8, i=44]
2 x [i=8, i=51, i=96, i=99]
1 x [i=8, i=55, i=90]
5 x [i=9, i=43]
6 x [i=10, i=46, i=97]
1 x [i=11, i=64, i=78]
5 x [i=11, i=71, i=71]
1 x [i=12, i=40]
1 x [i=13, i=42, i=98]
2 x [i=14, i=38]
4 x [i=15, i=37]
1 x [i=15, i=72, i=77, i=90]
6 x [i=16, i=36]
4 x [i=17, i=35]
5 x [i=18, i=34]
3 x [i=19, i=33]
2 x [i=20, i=32]
1 x [i=21, i=31]
1 x [i=21, i=42, i=93, i=98]
1 x [i=21, i=69, i=74, i=90]
3 x [i=22, i=30]
1 x [i=23, i=45, i=87, i=99]
1 x [i=23, i=58, i=84, i=89]
1 x [i=23, i=63, i=67]
2 x [i=24, i=28]
4 x [i=24, i=44, i=87, i=99]
1 x [i=24, i=78]
2 x [i=25, i=27]
2 x [i=25, i=39, i=89]
2 x [i=26, i=59, i=78, i=91]
1 x [i=28, i=39, i=86]
2 x [i=28, i=68, i=78, i=80]
4 x [i=29, i=52, i=81, i=92]
2 x [i=29, i=63, i=72, i=90]
2 x [i=29, i=64, i=79, i=82]
1 x [i=30, i=59, i=64]
4 x [i=31, i=56, i=66]
3 x [i=32, i=48, i=73]
1 x [i=32, i=56, i=65]
1 x [i=32, i=62, i=73, i=87]
1 x [i=32, i=65, i=76, i=81]
3 x [i=35, i=56, i=84, i=85, i=95]
3 x [i=36, i=41, i=86, i=91]
1 x [i=38, i=60, i=63, i=93]
2 x [i=38, i=65, i=75, i=76]
1 x [i=40, i=41, i=82, i=91]
1 x [i=41, i=69, i=70, i=74]
3 x [i=45, i=57, i=58, i=94]
1 x [i=45, i=57, i=67, i=92, i=94]
2 x [i=46, i=55, i=60, i=93]
3 x [i=47, i=53, i=53]
1 x [i=53, i=58, i=69, i=74]
1 x [i=53, i=61, i=62, i=82, i=97]
1 x [i=53, i=64, i=67, i=70]
3 x [i=54, i=61, i=71, i=73, i=96]
1 x [i=55, i=58, i=80, i=81, i=90, i=95, i=99, i=100]
1 x [i=55, i=60, i=77, i=83, i=88, i=93]
1 x [i=57, i=60, i=63, i=87, i=94, i=96]
1 x [i=57, i=62, i=67, i=77, i=92]
1 x [i=59, i=64, i=70, i=84, i=89, i=90]
1 x [i=62, i=63, i=63, i=66]
1 x [i=62, i=66, i=69, i=74, i=84]
1 x [i=74, i=76, i=77, i=80, i=81, i=99, i=100]
